c clasp version 2.1.1
c Reading from p61.cnf
c Solving...
s SATISFIABLE

c Models        : 1+    
c Time          : 1.967s (Solving: 0.27s 1st Model: 0.26s Unsat: 0.00s)
c CPU Time      : 1.950s
c Choices       : 8515
c Conflicts     : 568
c Restarts      : 1      (Average: 568.00 Last: 308)

c Variables     : 227653 (Eliminated: 75976 Frozen:    0)
c Constraints   : 248873 (Binary: 65.6% Ternary: 33.6% Other:  0.8%)
c Lemmas        : 568    (Binary:  0.9% Ternary:  3.0% Other: 96.1%)
c   Conflict    : 568    (Average Length: 100.1) 
c   Loop        : 0      (Average Length: 0.0) 
c   Other       : 0      (Average Length: 0.0)
c   Deleted     : 0     
